language Essence 1.3

letting blksize_delta be function(1 --> 7, 2 --> 7, 3 --> 7, 4 --> 7, 5 --> 7, 6 --> 7)
letting maxcars be function(1 --> 10, 2 --> 10, 3 --> 10, 4 --> 10, 5 --> 10, 6 --> 10)
letting n_cars be 277
letting n_classes be 90
letting n_options be 6
letting quantity be
        function(1 --> 7, 2 --> 3, 3 --> 3, 4 --> 6, 5 --> 3, 6 --> 3, 7 --> 3, 8 --> 3, 9 --> 3, 10 --> 3, 11 --> 3,
                 12 --> 3, 13 --> 3, 14 --> 3, 15 --> 3, 16 --> 3, 17 --> 3, 18 --> 3, 19 --> 3, 20 --> 3, 21 --> 3,
                 22 --> 3, 23 --> 3, 24 --> 3, 25 --> 3, 26 --> 3, 27 --> 3, 28 --> 3, 29 --> 3, 30 --> 3, 31 --> 3,
                 32 --> 3, 33 --> 3, 34 --> 3, 35 --> 3, 36 --> 3, 37 --> 3, 38 --> 3, 39 --> 3, 40 --> 3, 41 --> 3,
                 42 --> 3, 43 --> 3, 44 --> 3, 45 --> 3, 46 --> 3, 47 --> 3, 48 --> 3, 49 --> 3, 50 --> 3, 51 --> 3,
                 52 --> 3, 53 --> 3, 54 --> 3, 55 --> 3, 56 --> 3, 57 --> 3, 58 --> 3, 59 --> 3, 60 --> 3, 61 --> 3,
                 62 --> 3, 63 --> 3, 64 --> 3, 65 --> 3, 66 --> 3, 67 --> 3, 68 --> 3, 69 --> 3, 70 --> 3, 71 --> 3,
                 72 --> 3, 73 --> 3, 74 --> 3, 75 --> 3, 76 --> 3, 77 --> 3, 78 --> 3, 79 --> 3, 80 --> 3, 81 --> 3,
                 82 --> 3, 83 --> 3, 84 --> 3, 85 --> 3, 86 --> 3, 87 --> 3, 88 --> 3, 89 --> 3, 90 --> 3)
letting usage be
        relation((1, 6), (2, 1), (2, 4), (3, 2), (3, 6), (4, 1), (4, 5), (5, 4), (5, 6), (6, 1), (6, 2), (6, 4), (7, 1),
                 (7, 3), (7, 5), (8, 6), (9, 4), (10, 6), (11, 6), (12, 2), (12, 5), (12, 6), (13, 1), (14, 2), (14, 3),
                 (14, 4), (14, 5), (15, 6), (16, 6), (17, 1), (18, 6), (19, 1), (19, 3), (20, 3), (20, 5), (21, 6),
                 (22, 6), (23, 5), (24, 5), (25, 6), (26, 2), (26, 3), (27, 5), (27, 6), (28, 2), (28, 5), (29, 4),
                 (29, 5), (30, 2), (30, 4), (31, 5), (32, 3), (32, 4), (33, 6), (34, 1), (34, 6), (35, 3), (35, 6),
                 (36, 2), (36, 6), (37, 5), (37, 6), (38, 6), (39, 6), (40, 5), (41, 1), (42, 1), (42, 5), (43, 3),
                 (43, 5), (44, 2), (45, 2), (45, 6), (46, 4), (47, 3), (48, 3), (49, 1), (50, 6), (51, 2), (52, 3),
                 (53, 1), (53, 3), (54, 5), (55, 1), (55, 2), (56, 1), (56, 4), (56, 6), (57, 4), (57, 6), (58, 6),
                 (59, 2), (59, 4), (60, 2), (61, 1), (61, 2), (61, 5), (62, 1), (62, 5), (63, 5), (64, 6), (65, 3),
                 (66, 2), (66, 4), (67, 1), (68, 2), (68, 5), (69, 3), (69, 4), (70, 2), (70, 3), (71, 3), (71, 4),
                 (72, 6), (73, 6), (74, 6), (75, 2), (75, 3), (75, 5), (76, 1), (76, 3), (76, 6), (77, 3), (78, 1),
                 (78, 2), (78, 3), (78, 5), (78, 6), (79, 6), (80, 3), (80, 5), (81, 1), (81, 4), (82, 4), (82, 5),
                 (83, 1), (83, 4), (84, 4), (85, 2), (85, 4), (85, 5), (86, 6), (87, 3), (88, 1), (89, 1), (89, 4),
                 (90, 6))
$ Visualisation for usage
$  1  6
$  2  1
$  2  4
$  3  2
$  3  6
$  4  1
$  4  5
$  5  4
$  5  6
$  6  1
$  6  2
$  6  4
$  7  1
$  7  3
$  7  5
$  8  6
$  9  4
$ 10  6
$ 11  6
$ 12  2
$ 12  5
$ 12  6
$ 13  1
$ 14  2
$ 14  3
$ 14  4
$ 14  5
$ 15  6
$ 16  6
$ 17  1
$ 18  6
$ 19  1
$ 19  3
$ 20  3
$ 20  5
$ 21  6
$ 22  6
$ 23  5
$ 24  5
$ 25  6
$ 26  2
$ 26  3
$ 27  5
$ 27  6
$ 28  2
$ 28  5
$ 29  4
$ 29  5
$ 30  2
$ 30  4
$ 31  5
$ 32  3
$ 32  4
$ 33  6
$ 34  1
$ 34  6
$ 35  3
$ 35  6
$ 36  2
$ 36  6
$ 37  5
$ 37  6
$ 38  6
$ 39  6
$ 40  5
$ 41  1
$ 42  1
$ 42  5
$ 43  3
$ 43  5
$ 44  2
$ 45  2
$ 45  6
$ 46  4
$ 47  3
$ 48  3
$ 49  1
$ 50  6
$ 51  2
$ 52  3
$ 53  1
$ 53  3
$ 54  5
$ 55  1
$ 55  2
$ 56  1
$ 56  4
$ 56  6
$ 57  4
$ 57  6
$ 58  6
$ 59  2
$ 59  4
$ 60  2
$ 61  1
$ 61  2
$ 61  5
$ 62  1
$ 62  5
$ 63  5
$ 64  6
$ 65  3
$ 66  2
$ 66  4
$ 67  1
$ 68  2
$ 68  5
$ 69  3
$ 69  4
$ 70  2
$ 70  3
$ 71  3
$ 71  4
$ 72  6
$ 73  6
$ 74  6
$ 75  2
$ 75  3
$ 75  5
$ 76  1
$ 76  3
$ 76  6
$ 77  3
$ 78  1
$ 78  2
$ 78  3
$ 78  5
$ 78  6
$ 79  6
$ 80  3
$ 80  5
$ 81  1
$ 81  4
$ 82  4
$ 82  5
$ 83  1
$ 83  4
$ 84  4
$ 85  2
$ 85  4
$ 85  5
$ 86  6
$ 87  3
$ 88  1
$ 89  1
$ 89  4
$ 90  6

